unsat
(:max-memory         18.53
 :memory             18.43
 :nlsat-arith-var    3
 :nlsat-atoms        9
 :nlsat-bool-var     1
 :nlsat-clauses      7
 :nlsat-conflicts    1
 :nlsat-decisions    1
 :nlsat-propagations 5
 :nlsat-stages       2
 :num-allocs         83744
 :rlimit-count       3257
 :time               0.01
 :total-time         0.02)
